n_res = 4;
rc = [ 12, 15, 18, 17 ];
n_tasks = 30;
d = [ 6, 9, 5, 7, 5, 9, 9, 9, 1, 1, 6, 5, 3, 3, 2, 5, 4, 8, 8, 2, 2, 3, 6, 9, 4, 2, 2, 3, 2, 3 ];
rr = [| 0, 9, 0, 0, 0, 0, 0, 0, 4, 0, 0, 0, 0, 0, 0, 0, 0, 0, 0, 0, 0, 0, 0, 0, 0, 0, 2, 2, 0, 0
      | 0, 0, 0, 0, 3, 6, 0, 0, 0, 0, 3, 9, 8, 0, 7, 0, 0, 0, 0, 3, 0, 0, 0, 0, 0, 2, 0, 0, 0, 0
      | 2, 0, 2, 0, 0, 0, 0, 0, 0, 0, 0, 0, 0, 0, 0, 5, 0, 0, 10, 0, 4, 3, 0, 9, 0, 0, 0, 0, 0, 9
      | 0, 0, 0, 6, 0, 0, 9, 6, 0, 6, 0, 0, 0, 2, 0, 0, 8, 1, 0, 0, 0, 0, 4, 0, 4, 0, 0, 0, 6, 0 |];
suc = [ { 2 }, 
        { 1 }, 
        { 4 }, 
        { 3 }, 
        { 6 }, 
        { 5 }, 
        { 8 }, 
        { 7 }, 
        { 10 }, 
        { 9 }, 
        { 12 }, 
        { 11 }, 
        { 14 }, 
        { 13 }, 
        { 16 }, 
        { 15 }, 
        { 18 }, 
        { 17 }, 
        { 20 }, 
        { 19 }, 
        { 22 }, 
        { 21 }, 
        { 24 }, 
        { 23 }, 
        { 26 }, 
        { 25 }, 
        { 28 }, 
        { 27 }, 
        { 30 }, 
        { 29 }]; 
